NAME: tsp_183
COMMENT: Random TSP instance
TYPE: TSP
DIMENSION: 50
EDGE_WEIGHT_TYPE: EUC_2D
NODE_COORD_SECTION
1 679 86
2 338 458
3 702 451
4 606 551
5 908 811
6 41 821
7 2 639
8 430 521
9 253 102
10 606 166
11 860 861
12 724 443
13 487 164
14 864 821
15 456 958
16 55 618
17 715 630
18 80 872
19 681 129
20 115 654
21 321 529
22 510 323
23 1000 894
24 717 406
25 304 142
26 80 974
27 801 78
28 98 693
29 532 56
30 470 420
31 642 539
32 896 45
33 404 888
34 813 299
35 33 742
36 5 721
37 145 815
38 799 529
39 166 204
40 71 813
41 47 311
42 55 286
43 521 238
44 222 850
45 750 843
46 514 278
47 164 19
48 191 587
49 835 977
50 619 73
